sat
(:eliminated-vars              1
 :max-memory                   18.17
 :memory                       18.00
 :nlsat-conflicts              4
 :nlsat-decisions              2
 :nlsat-irrational-assignments 2
 :nlsat-learned-added          4
 :nlsat-propagations           19
 :nlsat-stages                 10
 :num-allocs                   6464
 :rlimit-count                 2606
 :time                         0.00
 :total-time                   0.01)
